Welcome to the CBC MILP Solver
Version: Devel (unstable)
Build Date: Feb  6 2022
command line - -import /home/danilo/psp-janniele/J30/j3051/j3051_5.lp -timeM elapsed -seconds 10800 -solve -quit (default strategy 1)
seconds was changed from 1e+08 to 10800
Continuous objective value is 0 - 0.037622 seconds
Cgl0002I 27 variables fixed
Cgl0003I 0 fixed, 0 tightened bounds, 8 strengthened rows, 0 substitutions
Cgl0003I 0 fixed, 0 tightened bounds, 8 strengthened rows, 0 substitutions
Cgl0003I 0 fixed, 0 tightened bounds, 8 strengthened rows, 0 substitutions
Cgl0003I 0 fixed, 0 tightened bounds, 8 strengthened rows, 0 substitutions
Cgl0003I 0 fixed, 0 tightened bounds, 7 strengthened rows, 0 substitutions
Cgl0003I 0 fixed, 0 tightened bounds, 6 strengthened rows, 0 substitutions
Cgl0003I 0 fixed, 0 tightened bounds, 5 strengthened rows, 0 substitutions
Cgl0003I 0 fixed, 0 tightened bounds, 5 strengthened rows, 0 substitutions
Cgl0003I 0 fixed, 0 tightened bounds, 4 strengthened rows, 0 substitutions
Cgl0004I processed model has 216 rows, 428 columns (428 integer (428 of which binary)) and 4599 elements
Coin3009W Conflict graph built in 0.010 seconds, density: 1.774%
Cgl0015I Clique Strengthening extended 0 cliques, 0 were dominated
Cbc0045I No integer variables out of 428 objects (428 integer) have costs
Cbc0045I branch on satisfied N create fake objective Y random cost Y
Cbc0038I Initial state - 22 integers unsatisfied sum - 4.6197
Cbc0038I Pass   1: suminf.    1.65909 (4) obj. 0 iterations 16
Cbc0038I Pass   2: suminf.    1.75000 (4) obj. 0 iterations 5
Cbc0038I Pass   3: suminf.    1.75000 (4) obj. 0 iterations 5
Cbc0038I Pass   4: suminf.    1.75000 (4) obj. 0 iterations 3
Cbc0038I Pass   5: suminf.    4.88571 (12) obj. 0 iterations 36
Cbc0038I Pass   6: suminf.    3.88571 (10) obj. 0 iterations 28
Cbc0038I Pass   7: suminf.    3.05000 (7) obj. 0 iterations 14
Cbc0038I Pass   8: suminf.    2.21667 (9) obj. 0 iterations 7
Cbc0038I Pass   9: suminf.    2.21667 (9) obj. 0 iterations 1
Cbc0038I Pass  10: suminf.    2.55000 (6) obj. 0 iterations 12
Cbc0038I Pass  11: suminf.    1.83571 (6) obj. 0 iterations 14
Cbc0038I Pass  12: suminf.    1.75833 (6) obj. 0 iterations 3
Cbc0038I Pass  13: suminf.    2.09167 (6) obj. 0 iterations 6
Cbc0038I Pass  14: suminf.    1.71667 (6) obj. 0 iterations 9
Cbc0038I Pass  15: suminf.    1.83571 (6) obj. 0 iterations 11
Cbc0038I Pass  16: suminf.    7.16126 (30) obj. 0 iterations 55
Cbc0038I Pass  17: suminf.    4.96337 (21) obj. 0 iterations 36
Cbc0038I Pass  18: suminf.    5.30678 (19) obj. 0 iterations 17
Cbc0038I Pass  19: suminf.    3.30678 (15) obj. 0 iterations 6
Cbc0038I Pass  20: suminf.    3.30678 (15) obj. 0 iterations 0
Cbc0038I Pass  21: suminf.    5.37500 (13) obj. 0 iterations 29
Cbc0038I Pass  22: suminf.    2.87500 (9) obj. 0 iterations 17
Cbc0038I Pass  23: suminf.    2.87500 (9) obj. 0 iterations 0
Cbc0038I Pass  24: suminf.    2.70238 (8) obj. 0 iterations 18
Cbc0038I Pass  25: suminf.    2.62500 (8) obj. 0 iterations 7
Cbc0038I Pass  26: suminf.    2.29167 (8) obj. 0 iterations 3
Cbc0038I Pass  27: suminf.    2.62500 (8) obj. 0 iterations 13
Cbc0038I Pass  28: suminf.    2.37500 (8) obj. 0 iterations 8
Cbc0038I Pass  29: suminf.    3.03571 (8) obj. 0 iterations 18
Cbc0038I Pass  30: suminf.    2.62500 (8) obj. 0 iterations 12
Cbc0038I Pass  31: suminf.    2.29167 (8) obj. 0 iterations 4
Cbc0038I Pass  32: suminf.    2.62500 (8) obj. 0 iterations 13
Cbc0038I Pass  33: suminf.    2.37500 (8) obj. 0 iterations 8
Cbc0038I Pass  34: suminf.    3.03571 (8) obj. 0 iterations 18
Cbc0038I Pass  35: suminf.    2.62500 (8) obj. 0 iterations 4
Cbc0038I Pass  36: suminf.    2.62500 (8) obj. 0 iterations 0
Cbc0038I Pass  37: suminf.    2.62500 (8) obj. 0 iterations 12
Cbc0038I Pass  38: suminf.    2.37500 (8) obj. 0 iterations 8
Cbc0038I Pass  39: suminf.    3.03571 (8) obj. 0 iterations 18
Cbc0038I Pass  40: suminf.    2.62500 (8) obj. 0 iterations 12
Cbc0038I Pass  41: suminf.    2.29167 (8) obj. 0 iterations 4
Cbc0038I Pass  42: suminf.    2.62500 (8) obj. 0 iterations 13
Cbc0038I Pass  43: suminf.    2.37500 (8) obj. 0 iterations 8
Cbc0038I Pass  44: suminf.    3.03571 (8) obj. 0 iterations 18
Cbc0038I Pass  45: suminf.    2.62500 (8) obj. 0 iterations 12
Cbc0038I Pass  46: suminf.    2.29167 (8) obj. 0 iterations 4
Cbc0038I Pass  47: suminf.    2.62500 (8) obj. 0 iterations 13
Cbc0038I Pass  48: suminf.    2.37500 (8) obj. 0 iterations 8
Cbc0038I Pass  49: suminf.    3.03571 (8) obj. 0 iterations 18
Cbc0038I Pass  50: suminf.    2.62500 (8) obj. 0 iterations 12
Cbc0038I Pass  51: suminf.    2.29167 (8) obj. 0 iterations 4
Cbc0038I Pass  52: suminf.    2.62500 (8) obj. 0 iterations 13
Cbc0038I Pass  53: suminf.    2.37500 (8) obj. 0 iterations 8
Cbc0038I Pass  54: suminf.    3.03571 (8) obj. 0 iterations 18
Cbc0038I Pass  55: suminf.    1.95833 (8) obj. 0 iterations 8
Cbc0038I Pass  56: suminf.    3.62500 (8) obj. 0 iterations 11
Cbc0038I Pass  57: suminf.    3.13333 (8) obj. 0 iterations 49
Cbc0038I Pass  58: suminf.    2.75238 (8) obj. 0 iterations 28
Cbc0038I Pass  59: suminf.    2.41905 (8) obj. 0 iterations 1
Cbc0038I Pass  60: suminf.    2.25000 (6) obj. 0 iterations 16
Cbc0038I Pass  61: suminf.    2.25000 (6) obj. 0 iterations 4
Cbc0038I Pass  62: suminf.    2.75000 (6) obj. 0 iterations 14
Cbc0038I Pass  63: suminf.    2.03571 (6) obj. 0 iterations 12
Cbc0038I Pass  64: suminf.    1.95833 (6) obj. 0 iterations 3
Cbc0038I Pass  65: suminf.    2.12500 (6) obj. 0 iterations 11
Cbc0038I Pass  66: suminf.    1.87500 (6) obj. 0 iterations 8
Cbc0038I Pass  67: suminf.    2.03571 (6) obj. 0 iterations 18
Cbc0038I Pass  68: suminf.    6.10000 (18) obj. 0 iterations 63
Cbc0038I Pass  69: suminf.    4.13333 (13) obj. 0 iterations 39
Cbc0038I Pass  70: suminf.    1.89011 (7) obj. 0 iterations 21
Cbc0038I Pass  71: suminf.    1.89011 (7) obj. 0 iterations 11
Cbc0038I Pass  72: suminf.    2.66154 (7) obj. 0 iterations 16
Cbc0038I Pass  73: suminf.    2.66154 (7) obj. 0 iterations 2
Cbc0038I Pass  74: suminf.    1.89011 (7) obj. 0 iterations 10
Cbc0038I Pass  75: suminf.    4.56190 (19) obj. 0 iterations 44
Cbc0038I Pass  76: suminf.    3.62857 (19) obj. 0 iterations 32
Cbc0038I Pass  77: suminf.    2.68681 (11) obj. 0 iterations 29
Cbc0038I Pass  78: suminf.    2.40110 (11) obj. 0 iterations 7
Cbc0038I Pass  79: suminf.    2.54872 (9) obj. 0 iterations 21
Cbc0038I Pass  80: suminf.    2.37729 (9) obj. 0 iterations 11
Cbc0038I Pass  81: suminf.    2.54872 (9) obj. 0 iterations 14
Cbc0038I Pass  82: suminf.    9.02381 (25) obj. 0 iterations 53
Cbc0038I Pass  83: suminf.    4.21429 (17) obj. 0 iterations 33
Cbc0038I Pass  84: suminf.    3.71429 (17) obj. 0 iterations 6
Cbc0038I Pass  85: suminf.    3.27333 (15) obj. 0 iterations 26
Cbc0038I Pass  86: suminf.    3.27333 (15) obj. 0 iterations 4
Cbc0038I Pass  87: suminf.    2.29167 (6) obj. 0 iterations 25
Cbc0038I Pass  88: suminf.    2.16667 (6) obj. 0 iterations 7
Cbc0038I Pass  89: suminf.    1.95833 (6) obj. 0 iterations 14
Cbc0038I Pass  90: suminf.    1.83333 (6) obj. 0 iterations 6
Cbc0038I Pass  91: suminf.    2.29167 (6) obj. 0 iterations 12
Cbc0038I Pass  92: suminf.    5.59091 (22) obj. 0 iterations 48
Cbc0038I Pass  93: suminf.    4.62121 (14) obj. 0 iterations 28
Cbc0038I Pass  94: suminf.    3.62121 (12) obj. 0 iterations 4
Cbc0038I Pass  95: suminf.    3.62121 (12) obj. 0 iterations 1
Cbc0038I Pass  96: suminf.    1.33333 (4) obj. 0 iterations 27
Cbc0038I Pass  97: suminf.    1.33333 (4) obj. 0 iterations 0
Cbc0038I Pass  98: suminf.    1.66667 (4) obj. 0 iterations 7
Cbc0038I Pass  99: suminf.    2.48417 (16) obj. 0 iterations 49
Cbc0038I Pass 100: suminf.    5.79167 (16) obj. 0 iterations 50
Cbc0038I No solution found this major pass
Cbc0038I Before mini branch and bound, 266 integers at bound fixed and 0 continuous
Cbc0038I Full problem 216 rows 428 columns, reduced to 177 rows 144 columns - too large
Cbc0038I Mini branch and bound did not improve solution (0.74 seconds)
Cbc0038I Full problem 217 rows 428 columns, reduced to 216 rows 428 columns - too large
Cbc0038I After 0.76 seconds - Feasibility pump exiting - took 0.29 seconds
Cbc0012I Integer solution of 0 found by DiveCoefficient after 128 iterations and 0 nodes (0.88 seconds)
Cbc0031I 11 added rows had average density of 30.909091
Cbc0013I At root node, 11 cuts changed objective from 0 to 0 in 3 passes
Cbc0014I Cut generator 0 (Probing) - 15 row cuts average 13.4 elements, 0 column cuts (0 active)  in 0.049 seconds - new frequency is 1
Cbc0014I Cut generator 1 (Gomory) - 14 row cuts average 189.9 elements, 0 column cuts (0 active)  in 0.005 seconds - new frequency is 1
Cbc0014I Cut generator 2 (Knapsack) - 5 row cuts average 19.2 elements, 0 column cuts (0 active)  in 0.013 seconds - new frequency is 1
Cbc0014I Cut generator 3 (Clique) - 0 row cuts average 0.0 elements, 0 column cuts (0 active)  in 0.000 seconds - new frequency is -100
Cbc0014I Cut generator 4 (OddWheel) - 0 row cuts average 0.0 elements, 0 column cuts (0 active)  in 0.002 seconds - new frequency is -100
Cbc0014I Cut generator 5 (MixedIntegerRounding2) - 5 row cuts average 77.8 elements, 0 column cuts (0 active)  in 0.003 seconds - new frequency is 1
Cbc0014I Cut generator 6 (FlowCover) - 0 row cuts average 0.0 elements, 0 column cuts (0 active)  in 0.000 seconds - new frequency is -100
Cbc0014I Cut generator 7 (TwoMirCuts) - 29 row cuts average 124.5 elements, 0 column cuts (0 active)  in 0.008 seconds - new frequency is -100
Cbc0014I Cut generator 8 (ZeroHalf) - 7 row cuts average 46.4 elements, 0 column cuts (0 active)  in 0.002 seconds - new frequency is -100
Cbc0001I Search completed - best objective 0, took 128 iterations and 0 nodes (0.88 seconds)
Cbc0035I Maximum depth 0, 0 variables fixed on reduced cost
Cuts at root node changed objective from 0 to 0
Probing was tried 3 times and created 15 cuts of which 0 were active after adding rounds of cuts (0.049369 seconds)
Gomory was tried 3 times and created 14 cuts of which 0 were active after adding rounds of cuts (0.004901 seconds)
Knapsack was tried 3 times and created 5 cuts of which 0 were active after adding rounds of cuts (0.013211 seconds)
Clique was tried 3 times and created 0 cuts of which 0 were active after adding rounds of cuts (0.000374 seconds)
OddWheel was tried 3 times and created 0 cuts of which 0 were active after adding rounds of cuts (0.001665 seconds)
MixedIntegerRounding2 was tried 3 times and created 5 cuts of which 0 were active after adding rounds of cuts (0.002928 seconds)
FlowCover was tried 3 times and created 0 cuts of which 0 were active after adding rounds of cuts (0.000251 seconds)
TwoMirCuts was tried 3 times and created 29 cuts of which 0 were active after adding rounds of cuts (0.007939 seconds)
ZeroHalf was tried 3 times and created 7 cuts of which 0 were active after adding rounds of cuts (0.001962 seconds)

Result - Optimal solution found
Objective value:                0
Enumerated nodes:               0
Total iterations:               128
Time (CPU seconds):             0.921986
Time (Wallclock seconds):       0.894204
Total time (CPU seconds):       0.97227   (Wallclock seconds):       0.919051
